7
	1 2	3 1	1 1	1 5	1 3	2 1	1 4
0	1	 1	 0	 0	 0	 0	 0	 
1	1	 1	 0	 0	 0	 0	 0	 
2	0	 0	 0	 0	 0	 0	 0	 
3	1	 1	 0	 0	 0	 0	 0	 
4	0	 0	 0	 0	 0	 0	 1	 
5	1	 1	 0	 0	 0	 0	 0	 
6	0	 0	 0	 0	 0	 1	 0	 
7	0	 0	 0	 0	 0	 1	 1	 
8	1	 1	 0	 0	 0	 0	 0	 
9	0	 0	 0	 0	 1	 0	 0	 
10	1	 1	 0	 0	 0	 0	 0	 
11	0	 0	 0	 0	 1	 0	 1	 
12	1	 1	 0	 0	 0	 0	 0	 
13	0	 0	 0	 0	 1	 1	 0	 
14	1	 1	 0	 0	 0	 0	 0	 
15	0	 0	 0	 0	 1	 1	 1	 
16	1	 1	 0	 0	 0	 0	 0	 
17	0	 0	 0	 1	 0	 0	 0	 
18	1	 1	 0	 0	 0	 0	 0	 
19	0	 0	 0	 1	 0	 0	 1	 
20	1	 1	 0	 0	 0	 0	 0	 
21	0	 0	 0	 1	 0	 1	 0	 
22	1	 1	 0	 0	 0	 0	 0	 
23	0	 0	 0	 1	 0	 1	 1	 
24	1	 1	 0	 0	 0	 0	 0	 
25	0	 0	 0	 1	 1	 0	 0	 
26	1	 1	 0	 0	 0	 0	 0	 
27	0	 0	 0	 1	 1	 0	 1	 
28	1	 1	 0	 0	 0	 0	 0	 
29	0	 0	 0	 1	 1	 1	 0	 
30	0	 0	 0	 1	 1	 1	 1	 
31	1	 1	 0	 0	 0	 0	 0	 
32	0	 0	 1	 0	 0	 0	 0	 
33	1	 1	 0	 0	 0	 0	 0	 
34	0	 1	 1	 0	 0	 0	 0	 
35	0	 1	 1	 0	 0	 0	 0	 
36	0	 0	 1	 0	 0	 0	 1	 
37	0	 1	 1	 0	 0	 0	 0	 
38	0	 0	 1	 0	 0	 1	 0	 
39	0	 1	 1	 0	 0	 0	 0	 
40	0	 0	 1	 0	 0	 1	 1	 
41	0	 1	 1	 0	 0	 0	 0	 
42	0	 0	 1	 0	 1	 0	 0	 
43	0	 1	 1	 0	 0	 0	 0	 
44	0	 0	 1	 0	 1	 0	 1	 
45	0	 1	 1	 0	 0	 0	 0	 
46	0	 0	 1	 0	 1	 1	 0	 
47	0	 1	 1	 0	 0	 0	 0	 
48	0	 0	 1	 0	 1	 1	 1	 
49	0	 1	 1	 0	 0	 0	 0	 
50	0	 0	 1	 1	 0	 0	 0	 
51	0	 1	 1	 0	 0	 0	 0	 
52	0	 0	 1	 1	 0	 0	 1	 
53	0	 1	 1	 0	 0	 0	 0	 
54	0	 0	 1	 1	 0	 1	 0	 
55	0	 1	 1	 0	 0	 0	 0	 
56	1	 0	 0	 0	 0	 0	 0	 
57	1	 0	 0	 0	 0	 0	 0	 
58	0	 0	 1	 1	 0	 1	 1	 
59	1	 0	 0	 0	 0	 0	 0	 
60	0	 0	 1	 1	 1	 0	 0	 
61	1	 0	 0	 0	 0	 0	 0	 
62	0	 0	 1	 1	 1	 0	 1	 
63	0	 0	 1	 1	 1	 1	 0	 
64	1	 0	 0	 0	 0	 0	 0	 
65	0	 1	 1	 1	 0	 0	 0	 
66	0	 0	 1	 1	 1	 1	 1	 
67	0	 0	 0	 0	 0	 1	 0	 
68	0	 1	 0	 0	 0	 0	 0	 
69	0	 0	 0	 0	 0	 1	 0	 
70	0	 1	 0	 0	 0	 0	 1	 
71	0	 0	 0	 0	 0	 1	 0	 
72	0	 1	 0	 0	 0	 1	 0	 
73	0	 0	 0	 0	 0	 1	 0	 
74	0	 1	 0	 0	 0	 1	 1	 
75	0	 1	 0	 0	 1	 0	 0	 
76	0	 0	 0	 0	 0	 1	 0	 
77	0	 1	 0	 0	 1	 0	 1	 
78	0	 0	 0	 0	 0	 1	 0	 
79	0	 1	 0	 0	 1	 1	 0	 
80	0	 0	 0	 0	 0	 1	 0	 
81	0	 1	 0	 0	 1	 1	 1	 
82	0	 0	 0	 0	 0	 1	 0	 
83	0	 1	 0	 1	 0	 0	 0	 
84	0	 0	 0	 0	 0	 1	 0	 
85	0	 1	 0	 1	 0	 0	 1	 
86	0	 0	 0	 0	 0	 1	 0	 
87	0	 1	 0	 1	 0	 1	 0	 
88	0	 0	 0	 0	 0	 1	 0	 
89	0	 1	 0	 1	 0	 1	 1	 
90	0	 0	 0	 0	 0	 1	 0	 
91	0	 1	 0	 1	 1	 0	 0	 
92	0	 0	 0	 0	 0	 1	 0	 
93	0	 1	 0	 1	 1	 0	 1	 
94	0	 0	 0	 0	 0	 1	 0	 
95	0	 1	 0	 1	 1	 1	 0	 
96	0	 0	 0	 0	 0	 1	 0	 
97	0	 1	 0	 1	 1	 1	 1	 
98	0	 1	 1	 0	 0	 0	 1	 
99	0	 0	 0	 0	 0	 1	 0	 
100	0	 1	 1	 0	 0	 1	 0	 
101	0	 0	 0	 0	 0	 1	 0	 
102	0	 1	 1	 0	 0	 1	 1	 
103	0	 0	 0	 0	 0	 1	 0	 
104	0	 1	 1	 0	 1	 0	 0	 
105	0	 0	 0	 0	 0	 1	 0	 
106	0	 1	 1	 0	 1	 0	 1	 
107	0	 0	 0	 0	 0	 1	 0	 
108	0	 1	 1	 0	 1	 1	 0	 
109	0	 1	 1	 0	 1	 1	 1	 
110	0	 1	 1	 0	 0	 1	 0	 
111	0	 1	 1	 1	 0	 0	 1	 
112	0	 1	 1	 0	 0	 1	 0	 
113	0	 1	 1	 1	 0	 1	 0	 
114	0	 1	 1	 0	 0	 1	 0	 
115	0	 1	 1	 1	 0	 1	 1	 
116	0	 1	 1	 1	 1	 0	 0	 
117	0	 1	 1	 1	 1	 0	 1	 
118	0	 1	 1	 0	 0	 1	 0	 
119	0	 1	 1	 1	 1	 1	 0	 
120	0	 1	 1	 0	 0	 1	 0	 
121	0	 1	 1	 1	 1	 1	 1	 
122	0	 1	 1	 0	 0	 1	 0	 
123	1	 0	 0	 0	 0	 0	 1	 
124	1	 0	 0	 0	 0	 1	 0	 
125	1	 0	 0	 0	 0	 1	 1	 
126	0	 1	 1	 0	 1	 1	 0	 
127	1	 0	 0	 0	 1	 0	 0	 
128	0	 1	 1	 0	 1	 1	 0	 
129	1	 0	 0	 0	 1	 0	 1	 
130	0	 1	 1	 0	 1	 1	 0	 
131	1	 0	 0	 0	 1	 1	 0	 
132	1	 0	 0	 0	 1	 1	 1	 
133	0	 1	 1	 0	 1	 1	 0	 
134	1	 0	 0	 1	 0	 0	 0	 
135	0	 1	 1	 0	 1	 1	 0	 
136	1	 0	 0	 1	 0	 0	 1	 
137	1	 0	 0	 1	 0	 1	 0	 
138	0	 0	 0	 0	 0	 0	 0	 
139	1	 0	 0	 1	 0	 1	 1	 
140	0	 0	 0	 0	 0	 0	 0	 
141	1	 0	 0	 1	 1	 0	 0	 
142	0	 0	 0	 0	 0	 0	 0	 
143	1	 0	 0	 1	 1	 0	 1	 
144	0	 0	 0	 0	 0	 0	 0	 
145	1	 0	 0	 1	 1	 1	 0	 
146	0	 0	 0	 0	 0	 0	 0	 
147	1	 0	 0	 1	 1	 1	 1	 
148	0	 0	 0	 0	 0	 0	 0	 
149	1	 0	 1	 0	 0	 0	 0	 
150	0	 0	 0	 0	 0	 0	 0	 
151	1	 0	 1	 0	 0	 0	 1	 
152	0	 0	 0	 0	 0	 0	 0	 
153	1	 0	 1	 0	 0	 1	 0	 
154	0	 0	 0	 0	 0	 0	 0	 
155	1	 0	 1	 0	 0	 1	 1	 
156	0	 0	 0	 0	 0	 0	 0	 
157	1	 0	 1	 0	 1	 0	 0	 
158	0	 0	 0	 0	 0	 0	 0	 
159	1	 0	 1	 0	 1	 0	 1	 
160	0	 0	 0	 0	 0	 0	 0	 
161	1	 0	 1	 0	 1	 1	 0	 
162	0	 0	 0	 0	 0	 0	 0	 
163	1	 0	 1	 0	 1	 1	 1	 
164	0	 0	 0	 0	 0	 0	 0	 
165	1	 0	 1	 1	 0	 0	 0	 
166	0	 0	 0	 0	 0	 0	 0	 
167	1	 0	 1	 1	 0	 0	 1	 
168	0	 0	 0	 0	 0	 0	 0	 
169	1	 0	 1	 1	 0	 1	 0	 
170	0	 0	 0	 0	 0	 0	 0	 
171	1	 0	 1	 1	 0	 1	 1	 
172	0	 0	 0	 0	 0	 0	 0	 
173	1	 0	 1	 1	 1	 0	 0	 
174	0	 0	 0	 0	 0	 0	 0	 
175	1	 0	 1	 1	 1	 0	 1	 
176	0	 0	 0	 0	 0	 0	 0	 
177	1	 0	 1	 1	 1	 1	 0	 
178	0	 0	 0	 0	 0	 0	 0	 
179	1	 0	 1	 1	 1	 1	 1	 
180	0	 0	 0	 0	 0	 0	 0	 
181	1	 1	 0	 0	 0	 0	 1	 
182	0	 0	 0	 0	 0	 0	 0	 
183	1	 1	 0	 0	 0	 1	 0	 
184	0	 0	 0	 0	 0	 0	 0	 
185	1	 1	 0	 0	 0	 1	 1	 
186	0	 0	 0	 0	 0	 0	 0	 
187	1	 1	 0	 0	 1	 0	 0	 
188	0	 0	 0	 0	 0	 0	 0	 
189	1	 1	 0	 0	 1	 0	 1	 
190	0	 0	 0	 0	 0	 0	 0	 
191	1	 1	 0	 0	 1	 1	 0	 
192	0	 1	 1	 0	 0	 0	 0	 
193	1	 1	 0	 0	 1	 1	 1	 
194	0	 1	 1	 1	 0	 0	 0	 
195	1	 1	 0	 1	 0	 0	 0	 
196	0	 1	 1	 1	 0	 0	 0	 
197	1	 1	 0	 1	 0	 0	 1	 
198	0	 1	 1	 1	 0	 0	 0	 
199	1	 1	 0	 1	 0	 1	 0	 
200	0	 1	 1	 1	 0	 0	 0	 
201	1	 1	 0	 1	 0	 1	 1	 
202	0	 1	 1	 1	 0	 0	 0	 
